10
0, 816, 933, 143, 825, 970, 695, 596, 342, 412
816, 0, 297, 691, 279, 365, 366, 299, 474, 449
933, 297, 0, 838, 110, 644, 266, 336, 610, 656
143, 691, 838, 0, 734, 827, 620, 503, 228, 270
825, 279, 110, 734, 0, 644, 159, 231, 508, 568
970, 365, 644, 827, 644, 0, 722, 623, 672, 558
695, 366, 266, 620, 159, 722, 0, 146, 406, 505
596, 299, 336, 503, 231, 623, 146, 0, 278, 360
342, 474, 610, 228, 508, 672, 406, 278, 0, 159
412, 449, 656, 270, 568, 558, 505, 360, 159, 0
